data;

param w := 15;
param n := 10;
param min_h := 15;
param max_h := 24;

set BLOCKS := 1 2 3 4 5 6 7 8 9 10 ;

param:	width	height :=
	1	3	15
	2	3	12
	3	3	9
	4	3	8
	5	3	7
	6	3	6
	7	6	3
	8	3	5
	9	3	4
	10	3	3;